#file dei dati

set I := V C F; #risorse : verdura, carne, frutta
set J := pr fe ca; #domande : proteine, ferro, calcio

param C :=
V 4
C 10
F 7
; #costi

param D :=
pr 20
fe 30
ca 10
; #q.ta richieste

param A : pr fe ca := 
V 		5  6  5
C 		15 10 3
F 		4  5  12	
; #coperture unitarie
